(set-option :auto-config true)
(declare-const GEN1 Int)
(declare-const GEN2 Int)
(declare-const GEN3 Int)
(declare-const BAV4 Bool)
(declare-const BAV5 Bool)
(declare-const BAV6 Bool)
(set-option :produce-models true)
(declare-fun f (Int) Int)
(declare-fun a () Int)
(declare-const b Int)
(assert (> a GEN1))
(assert (> b a))
(assert (= (f GEN2) GEN3))
(assert (= BAV4 (> a GEN1)))
(assert (= BAV5 (> b a)))
(assert (= BAV6 (= (f GEN2) GEN3)))
(check-sat)
(get-model)